nK = 2054;
nT = 6;
nI = 14;
L = 35;
TT = 420;
np = 1;
nc = 3;
b = [45, 24, 40, 28, 52, 36, 29, 51, 69, 66, 40, 60, 33, 45];
d = [86, 91, 128, 129, 119, 104, 48, 143, 130, 104, 127, 118, 99, 92];
m = [1.3, 2.3, 2.4, 2.5, 1.5, 1.8, 1.2, 1.2, 1.9, 1.6, 1.4, 1.1, 2.5, 1.7];
pt = [0.29, 0.25, 0.2, 0.34, 0.28, 0.21];
st = [11.89, 13.25, 9.2, 19.72, 16.8, 11.97];
arc = {<1, 0, 1, 1, 0, 0, 0, [1, 1, 1, 1, 1, 1]>, <2, 1, 2, 1, 0, 0, 0, [1, 1, 1, 1, 1, 1]>, <3, 2, 3, 1, 0, 0, 0, [1, 1, 1, 1, 1, 1]>, <4, 3, 4, 1, 0, 0, 0, [1, 1, 1, 1, 1, 1]>, <5, 4, 5, 1, 0, 0, 0, [1, 1, 1, 1, 1, 1]>, <6, 5, 6, 1, 0, 0, 0, [1, 1, 1, 1, 1, 1]>, <7, 6, 7, 1, 0, 0, 0, [1, 1, 1, 1, 1, 1]>, <8, 7, 8, 1, 0, 0, 0, [1, 1, 1, 1, 1, 1]>, <9, 8, 9, 1, 0, 0, 0, [1, 1, 1, 1, 1, 1]>, <10, 9, 10, 1, 0, 0, 0, [1, 1, 1, 1, 1, 1]>, <11, 10, 11, 1, 0, 0, 0, [1, 1, 1, 1, 1, 1]>, <12, 11, 12, 1, 0, 0, 0, [1, 1, 1, 1, 1, 1]>, <13, 12, 13, 1, 0, 0, 0, [1, 1, 1, 1, 1, 1]>, <14, 13, 14, 1, 0, 0, 0, [1, 1, 1, 1, 1, 1]>, <15, 14, 15, 1, 0, 0, 0, [1, 1, 1, 1, 1, 1]>, <16, 15, 16, 1, 0, 0, 0, [1, 1, 1, 1, 1, 1]>, <17, 16, 17, 1, 0, 0, 0, [1, 1, 1, 1, 1, 1]>, <18, 17, 18, 1, 0, 0, 0, [1, 1, 1, 1, 1, 1]>, <19, 18, 19, 1, 0, 0, 0, [1, 1, 1, 1, 1, 1]>, <20, 19, 20, 1, 0, 0, 0, [1, 1, 1, 1, 1, 1]>, <21, 20, 21, 1, 0, 0, 0, [1, 1, 1, 1, 1, 1]>, <22, 21, 22, 1, 0, 0, 0, [1, 1, 1, 1, 1, 1]>, <23, 22, 23, 1, 0, 0, 0, [1, 1, 1, 1, 1, 1]>, <24, 23, 24, 1, 0, 0, 0, [1, 1, 1, 1, 1, 1]>, <25, 24, 25, 1, 0, 0, 0, [1, 1, 1, 1, 1, 1]>, <26, 25, 26, 1, 0, 0, 0, [1, 1, 1, 1, 1, 1]>, <27, 26, 27, 1, 0, 0, 0, [1, 1, 1, 1, 1, 1]>, <28, 27, 28, 1, 0, 0, 0, [1, 1, 1, 1, 1, 1]>, <29, 28, 29, 1, 0, 0, 0, [1, 1, 1, 1, 1, 1]>, <30, 29, 30, 1, 0, 0, 0, [1, 1, 1, 1, 1, 1]>, <31, 30, 31, 1, 0, 0, 0, [1, 1, 1, 1, 1, 1]>, <32, 31, 32, 1, 0, 0, 0, [1, 1, 1, 1, 1, 1]>, <33, 32, 33, 1, 0, 0, 0, [1, 1, 1, 1, 1, 1]>, <34, 33, 34, 1, 0, 0, 0, [1, 1, 1, 1, 1, 1]>, <35, 34, 35, 1, 0, 0, 0, [1, 1, 1, 1, 1, 1]>, <36, 0, 18, 18, 1, 0, 1, [0, 0, 1, 1, 1, 1]>, <37, 1, 19, 18, 1, 0, 1, [0, 0, 1, 1, 1, 1]>, <38, 2, 20, 18, 1, 0, 1, [0, 0, 1, 1, 1, 1]>, <39, 3, 21, 18, 1, 0, 1, [0, 0, 1, 1, 1, 1]>, <40, 4, 22, 18, 1, 0, 1, [0, 0, 1, 1, 1, 1]>, <41, 5, 23, 18, 1, 0, 1, [0, 0, 1, 1, 1, 1]>, <42, 6, 24, 18, 1, 0, 1, [0, 0, 1, 1, 1, 1]>, <43, 8, 26, 18, 1, 0, 1, [0, 0, 1, 1, 1, 1]>, <44, 9, 27, 18, 1, 0, 1, [0, 0, 1, 1, 1, 1]>, <45, 10, 28, 18, 1, 0, 1, [0, 0, 1, 1, 1, 1]>, <46, 11, 29, 18, 1, 0, 1, [0, 0, 1, 1, 1, 1]>, <47, 12, 30, 18, 1, 0, 1, [0, 0, 1, 1, 1, 1]>, <48, 13, 31, 18, 1, 0, 1, [0, 0, 1, 1, 1, 1]>, <49, 14, 32, 18, 1, 0, 1, [0, 0, 1, 1, 1, 1]>, <50, 15, 33, 18, 1, 0, 1, [0, 0, 1, 1, 1, 1]>, <51, 16, 34, 18, 1, 0, 1, [0, 0, 1, 1, 1, 1]>, <52, 17, 35, 18, 1, 0, 1, [0, 0, 1, 1, 1, 1]>, <53, 0, 18, 18, 2, 1, 0, [0, 0, 1, 1, 1, 1]>, <54, 1, 19, 18, 2, 1, 0, [0, 0, 1, 1, 1, 1]>, <55, 2, 20, 18, 2, 1, 0, [0, 0, 1, 1, 1, 1]>, <56, 3, 21, 18, 2, 1, 0, [0, 0, 1, 1, 1, 1]>, <57, 4, 22, 18, 2, 1, 0, [0, 0, 1, 1, 1, 1]>, <58, 5, 23, 18, 2, 1, 0, [0, 0, 1, 1, 1, 1]>, <59, 6, 24, 18, 2, 1, 0, [0, 0, 1, 1, 1, 1]>, <60, 8, 26, 18, 2, 1, 0, [0, 0, 1, 1, 1, 1]>, <61, 9, 27, 18, 2, 1, 0, [0, 0, 1, 1, 1, 1]>, <62, 10, 28, 18, 2, 1, 0, [0, 0, 1, 1, 1, 1]>, <63, 11, 29, 18, 2, 1, 0, [0, 0, 1, 1, 1, 1]>, <64, 12, 30, 18, 2, 1, 0, [0, 0, 1, 1, 1, 1]>, <65, 13, 31, 18, 2, 1, 0, [0, 0, 1, 1, 1, 1]>, <66, 14, 32, 18, 2, 1, 0, [0, 0, 1, 1, 1, 1]>, <67, 15, 33, 18, 2, 1, 0, [0, 0, 1, 1, 1, 1]>, <68, 16, 34, 18, 2, 1, 0, [0, 0, 1, 1, 1, 1]>, <69, 17, 35, 18, 2, 1, 0, [0, 0, 1, 1, 1, 1]>, <70, 0, 20, 20, 3, 0, 0, [1, 1, 1, 0, 0, 1]>, <71, 1, 21, 20, 3, 0, 0, [1, 1, 1, 0, 0, 1]>, <72, 2, 22, 20, 3, 0, 0, [1, 1, 1, 0, 0, 1]>, <73, 3, 23, 20, 3, 0, 0, [1, 1, 1, 0, 0, 1]>, <74, 4, 24, 20, 3, 0, 0, [1, 1, 1, 0, 0, 1]>, <75, 5, 25, 20, 3, 0, 0, [1, 1, 1, 0, 0, 1]>, <76, 6, 26, 20, 3, 0, 0, [1, 1, 1, 0, 0, 1]>, <77, 7, 27, 20, 3, 0, 0, [1, 1, 1, 0, 0, 1]>, <78, 8, 28, 20, 3, 0, 0, [1, 1, 1, 0, 0, 1]>, <79, 9, 29, 20, 3, 0, 0, [1, 1, 1, 0, 0, 1]>, <80, 10, 30, 20, 3, 0, 0, [1, 1, 1, 0, 0, 1]>, <81, 11, 31, 20, 3, 0, 0, [1, 1, 1, 0, 0, 1]>, <82, 12, 32, 20, 3, 0, 0, [1, 1, 1, 0, 0, 1]>, <83, 13, 33, 20, 3, 0, 0, [1, 1, 1, 0, 0, 1]>, <84, 14, 34, 20, 3, 0, 0, [1, 1, 1, 0, 0, 1]>, <85, 15, 35, 20, 3, 0, 0, [1, 1, 1, 0, 0, 1]>, <86, 0, 23, 23, 4, 0, 1, [0, 1, 1, 1, 1, 0]>, <87, 1, 24, 23, 4, 0, 1, [0, 1, 1, 1, 1, 0]>, <88, 2, 25, 23, 4, 0, 1, [0, 1, 1, 1, 1, 0]>, <89, 3, 26, 23, 4, 0, 1, [0, 1, 1, 1, 1, 0]>, <90, 4, 27, 23, 4, 0, 1, [0, 1, 1, 1, 1, 0]>, <91, 5, 28, 23, 4, 0, 1, [0, 1, 1, 1, 1, 0]>, <92, 6, 29, 23, 4, 0, 1, [0, 1, 1, 1, 1, 0]>, <93, 7, 30, 23, 4, 0, 1, [0, 1, 1, 1, 1, 0]>, <94, 8, 31, 23, 4, 0, 1, [0, 1, 1, 1, 1, 0]>, <95, 9, 32, 23, 4, 0, 1, [0, 1, 1, 1, 1, 0]>, <96, 10, 33, 23, 4, 0, 1, [0, 1, 1, 1, 1, 0]>, <97, 11, 34, 23, 4, 0, 1, [0, 1, 1, 1, 1, 0]>, <98, 12, 35, 23, 4, 0, 1, [0, 1, 1, 1, 1, 0]>, <99, 0, 20, 20, 5, 0, 0, [0, 0, 1, 1, 1, 1]>, <100, 1, 21, 20, 5, 0, 0, [0, 0, 1, 1, 1, 1]>, <101, 2, 22, 20, 5, 0, 0, [0, 0, 1, 1, 1, 1]>, <102, 3, 23, 20, 5, 0, 0, [0, 0, 1, 1, 1, 1]>, <103, 4, 24, 20, 5, 0, 0, [0, 0, 1, 1, 1, 1]>, <104, 5, 25, 20, 5, 0, 0, [0, 0, 1, 1, 1, 1]>, <105, 6, 26, 20, 5, 0, 0, [0, 0, 1, 1, 1, 1]>, <106, 7, 27, 20, 5, 0, 0, [0, 0, 1, 1, 1, 1]>, <107, 8, 28, 20, 5, 0, 0, [0, 0, 1, 1, 1, 1]>, <108, 9, 29, 20, 5, 0, 0, [0, 0, 1, 1, 1, 1]>, <109, 10, 30, 20, 5, 0, 0, [0, 0, 1, 1, 1, 1]>, <110, 11, 31, 20, 5, 0, 0, [0, 0, 1, 1, 1, 1]>, <111, 12, 32, 20, 5, 0, 0, [0, 0, 1, 1, 1, 1]>, <112, 13, 33, 20, 5, 0, 0, [0, 0, 1, 1, 1, 1]>, <113, 14, 34, 20, 5, 0, 0, [0, 0, 1, 1, 1, 1]>, <114, 15, 35, 20, 5, 0, 0, [0, 0, 1, 1, 1, 1]>, <115, 0, 22, 22, 6, 1, 0, [1, 1, 0, 0, 1, 1]>, <116, 1, 23, 22, 6, 1, 0, [1, 1, 0, 0, 1, 1]>, <117, 2, 24, 22, 6, 1, 0, [1, 1, 0, 0, 1, 1]>, <118, 3, 25, 22, 6, 1, 0, [1, 1, 0, 0, 1, 1]>, <119, 4, 26, 22, 6, 1, 0, [1, 1, 0, 0, 1, 1]>, <120, 5, 27, 22, 6, 1, 0, [1, 1, 0, 0, 1, 1]>, <121, 6, 28, 22, 6, 1, 0, [1, 1, 0, 0, 1, 1]>, <122, 7, 29, 22, 6, 1, 0, [1, 1, 0, 0, 1, 1]>, <123, 8, 30, 22, 6, 1, 0, [1, 1, 0, 0, 1, 1]>, <124, 9, 31, 22, 6, 1, 0, [1, 1, 0, 0, 1, 1]>, <125, 10, 32, 22, 6, 1, 0, [1, 1, 0, 0, 1, 1]>, <126, 11, 33, 22, 6, 1, 0, [1, 1, 0, 0, 1, 1]>, <127, 12, 34, 22, 6, 1, 0, [1, 1, 0, 0, 1, 1]>, <128, 13, 35, 22, 6, 1, 0, [1, 1, 0, 0, 1, 1]>, <129, 0, 18, 18, 7, 0, 1, [1, 1, 1, 1, 0, 0]>, <130, 1, 19, 18, 7, 0, 1, [1, 1, 1, 1, 0, 0]>, <131, 2, 20, 18, 7, 0, 1, [1, 1, 1, 1, 0, 0]>, <132, 3, 21, 18, 7, 0, 1, [1, 1, 1, 1, 0, 0]>, <133, 4, 22, 18, 7, 0, 1, [1, 1, 1, 1, 0, 0]>, <134, 5, 23, 18, 7, 0, 1, [1, 1, 1, 1, 0, 0]>, <135, 6, 24, 18, 7, 0, 1, [1, 1, 1, 1, 0, 0]>, <136, 8, 26, 18, 7, 0, 1, [1, 1, 1, 1, 0, 0]>, <137, 9, 27, 18, 7, 0, 1, [1, 1, 1, 1, 0, 0]>, <138, 10, 28, 18, 7, 0, 1, [1, 1, 1, 1, 0, 0]>, <139, 11, 29, 18, 7, 0, 1, [1, 1, 1, 1, 0, 0]>, <140, 12, 30, 18, 7, 0, 1, [1, 1, 1, 1, 0, 0]>, <141, 13, 31, 18, 7, 0, 1, [1, 1, 1, 1, 0, 0]>, <142, 14, 32, 18, 7, 0, 1, [1, 1, 1, 1, 0, 0]>, <143, 15, 33, 18, 7, 0, 1, [1, 1, 1, 1, 0, 0]>, <144, 16, 34, 18, 7, 0, 1, [1, 1, 1, 1, 0, 0]>, <145, 17, 35, 18, 7, 0, 1, [1, 1, 1, 1, 0, 0]>, <146, 1, 17, 16, 8, 0, 1, [1, 1, 1, 0, 0, 1]>, <147, 2, 18, 16, 8, 0, 1, [1, 1, 1, 0, 0, 1]>, <148, 3, 19, 16, 8, 0, 1, [1, 1, 1, 0, 0, 1]>, <149, 4, 20, 16, 8, 0, 1, [1, 1, 1, 0, 0, 1]>, <150, 5, 21, 16, 8, 0, 1, [1, 1, 1, 0, 0, 1]>, <151, 6, 22, 16, 8, 0, 1, [1, 1, 1, 0, 0, 1]>, <152, 10, 26, 16, 8, 0, 1, [1, 1, 1, 0, 0, 1]>, <153, 11, 27, 16, 8, 0, 1, [1, 1, 1, 0, 0, 1]>, <154, 12, 28, 16, 8, 0, 1, [1, 1, 1, 0, 0, 1]>, <155, 13, 29, 16, 8, 0, 1, [1, 1, 1, 0, 0, 1]>, <156, 14, 30, 16, 8, 0, 1, [1, 1, 1, 0, 0, 1]>, <157, 15, 31, 16, 8, 0, 1, [1, 1, 1, 0, 0, 1]>, <158, 16, 32, 16, 8, 0, 1, [1, 1, 1, 0, 0, 1]>, <159, 17, 33, 16, 8, 0, 1, [1, 1, 1, 0, 0, 1]>, <160, 18, 34, 16, 8, 0, 1, [1, 1, 1, 0, 0, 1]>, <161, 19, 35, 16, 8, 0, 1, [1, 1, 1, 0, 0, 1]>, <162, 0, 22, 22, 9, 0, 1, [1, 1, 1, 0, 0, 1]>, <163, 1, 23, 22, 9, 0, 1, [1, 1, 1, 0, 0, 1]>, <164, 2, 24, 22, 9, 0, 1, [1, 1, 1, 0, 0, 1]>, <165, 3, 25, 22, 9, 0, 1, [1, 1, 1, 0, 0, 1]>, <166, 4, 26, 22, 9, 0, 1, [1, 1, 1, 0, 0, 1]>, <167, 5, 27, 22, 9, 0, 1, [1, 1, 1, 0, 0, 1]>, <168, 6, 28, 22, 9, 0, 1, [1, 1, 1, 0, 0, 1]>, <169, 7, 29, 22, 9, 0, 1, [1, 1, 1, 0, 0, 1]>, <170, 8, 30, 22, 9, 0, 1, [1, 1, 1, 0, 0, 1]>, <171, 9, 31, 22, 9, 0, 1, [1, 1, 1, 0, 0, 1]>, <172, 10, 32, 22, 9, 0, 1, [1, 1, 1, 0, 0, 1]>, <173, 11, 33, 22, 9, 0, 1, [1, 1, 1, 0, 0, 1]>, <174, 12, 34, 22, 9, 0, 1, [1, 1, 1, 0, 0, 1]>, <175, 13, 35, 22, 9, 0, 1, [1, 1, 1, 0, 0, 1]>, <176, 0, 20, 20, 10, 1, 0, [1, 0, 0, 1, 1, 1]>, <177, 1, 21, 20, 10, 1, 0, [1, 0, 0, 1, 1, 1]>, <178, 2, 22, 20, 10, 1, 0, [1, 0, 0, 1, 1, 1]>, <179, 3, 23, 20, 10, 1, 0, [1, 0, 0, 1, 1, 1]>, <180, 4, 24, 20, 10, 1, 0, [1, 0, 0, 1, 1, 1]>, <181, 5, 25, 20, 10, 1, 0, [1, 0, 0, 1, 1, 1]>, <182, 6, 26, 20, 10, 1, 0, [1, 0, 0, 1, 1, 1]>, <183, 7, 27, 20, 10, 1, 0, [1, 0, 0, 1, 1, 1]>, <184, 8, 28, 20, 10, 1, 0, [1, 0, 0, 1, 1, 1]>, <185, 9, 29, 20, 10, 1, 0, [1, 0, 0, 1, 1, 1]>, <186, 10, 30, 20, 10, 1, 0, [1, 0, 0, 1, 1, 1]>, <187, 11, 31, 20, 10, 1, 0, [1, 0, 0, 1, 1, 1]>, <188, 12, 32, 20, 10, 1, 0, [1, 0, 0, 1, 1, 1]>, <189, 13, 33, 20, 10, 1, 0, [1, 0, 0, 1, 1, 1]>, <190, 14, 34, 20, 10, 1, 0, [1, 0, 0, 1, 1, 1]>, <191, 15, 35, 20, 10, 1, 0, [1, 0, 0, 1, 1, 1]>, <192, 0, 17, 17, 11, 0, 0, [1, 1, 1, 0, 0, 1]>, <193, 1, 18, 17, 11, 0, 0, [1, 1, 1, 0, 0, 1]>, <194, 2, 19, 17, 11, 0, 0, [1, 1, 1, 0, 0, 1]>, <195, 3, 20, 17, 11, 0, 0, [1, 1, 1, 0, 0, 1]>, <196, 4, 21, 17, 11, 0, 0, [1, 1, 1, 0, 0, 1]>, <197, 5, 22, 17, 11, 0, 0, [1, 1, 1, 0, 0, 1]>, <198, 6, 23, 17, 11, 0, 0, [1, 1, 1, 0, 0, 1]>, <199, 9, 26, 17, 11, 0, 0, [1, 1, 1, 0, 0, 1]>, <200, 10, 27, 17, 11, 0, 0, [1, 1, 1, 0, 0, 1]>, <201, 11, 28, 17, 11, 0, 0, [1, 1, 1, 0, 0, 1]>, <202, 12, 29, 17, 11, 0, 0, [1, 1, 1, 0, 0, 1]>, <203, 13, 30, 17, 11, 0, 0, [1, 1, 1, 0, 0, 1]>, <204, 14, 31, 17, 11, 0, 0, [1, 1, 1, 0, 0, 1]>, <205, 15, 32, 17, 11, 0, 0, [1, 1, 1, 0, 0, 1]>, <206, 16, 33, 17, 11, 0, 0, [1, 1, 1, 0, 0, 1]>, <207, 17, 34, 17, 11, 0, 0, [1, 1, 1, 0, 0, 1]>, <208, 18, 35, 17, 11, 0, 0, [1, 1, 1, 0, 0, 1]>, <209, 0, 17, 17, 12, 0, 1, [1, 1, 1, 0, 0, 1]>, <210, 1, 18, 17, 12, 0, 1, [1, 1, 1, 0, 0, 1]>, <211, 2, 19, 17, 12, 0, 1, [1, 1, 1, 0, 0, 1]>, <212, 3, 20, 17, 12, 0, 1, [1, 1, 1, 0, 0, 1]>, <213, 4, 21, 17, 12, 0, 1, [1, 1, 1, 0, 0, 1]>, <214, 5, 22, 17, 12, 0, 1, [1, 1, 1, 0, 0, 1]>, <215, 6, 23, 17, 12, 0, 1, [1, 1, 1, 0, 0, 1]>, <216, 9, 26, 17, 12, 0, 1, [1, 1, 1, 0, 0, 1]>, <217, 10, 27, 17, 12, 0, 1, [1, 1, 1, 0, 0, 1]>, <218, 11, 28, 17, 12, 0, 1, [1, 1, 1, 0, 0, 1]>, <219, 12, 29, 17, 12, 0, 1, [1, 1, 1, 0, 0, 1]>, <220, 13, 30, 17, 12, 0, 1, [1, 1, 1, 0, 0, 1]>, <221, 14, 31, 17, 12, 0, 1, [1, 1, 1, 0, 0, 1]>, <222, 15, 32, 17, 12, 0, 1, [1, 1, 1, 0, 0, 1]>, <223, 16, 33, 17, 12, 0, 1, [1, 1, 1, 0, 0, 1]>, <224, 17, 34, 17, 12, 0, 1, [1, 1, 1, 0, 0, 1]>, <225, 18, 35, 17, 12, 0, 1, [1, 1, 1, 0, 0, 1]>, <226, 0, 20, 20, 13, 0, 1, [1, 0, 0, 1, 1, 1]>, <227, 1, 21, 20, 13, 0, 1, [1, 0, 0, 1, 1, 1]>, <228, 2, 22, 20, 13, 0, 1, [1, 0, 0, 1, 1, 1]>, <229, 3, 23, 20, 13, 0, 1, [1, 0, 0, 1, 1, 1]>, <230, 4, 24, 20, 13, 0, 1, [1, 0, 0, 1, 1, 1]>, <231, 5, 25, 20, 13, 0, 1, [1, 0, 0, 1, 1, 1]>, <232, 6, 26, 20, 13, 0, 1, [1, 0, 0, 1, 1, 1]>, <233, 7, 27, 20, 13, 0, 1, [1, 0, 0, 1, 1, 1]>, <234, 8, 28, 20, 13, 0, 1, [1, 0, 0, 1, 1, 1]>, <235, 9, 29, 20, 13, 0, 1, [1, 0, 0, 1, 1, 1]>, <236, 10, 30, 20, 13, 0, 1, [1, 0, 0, 1, 1, 1]>, <237, 11, 31, 20, 13, 0, 1, [1, 0, 0, 1, 1, 1]>, <238, 12, 32, 20, 13, 0, 1, [1, 0, 0, 1, 1, 1]>, <239, 13, 33, 20, 13, 0, 1, [1, 0, 0, 1, 1, 1]>, <240, 14, 34, 20, 13, 0, 1, [1, 0, 0, 1, 1, 1]>, <241, 15, 35, 20, 13, 0, 1, [1, 0, 0, 1, 1, 1]>, <242, 0, 18, 18, 14, 0, 0, [1, 1, 1, 1, 0, 0]>, <243, 1, 19, 18, 14, 0, 0, [1, 1, 1, 1, 0, 0]>, <244, 2, 20, 18, 14, 0, 0, [1, 1, 1, 1, 0, 0]>, <245, 3, 21, 18, 14, 0, 0, [1, 1, 1, 1, 0, 0]>, <246, 4, 22, 18, 14, 0, 0, [1, 1, 1, 1, 0, 0]>, <247, 5, 23, 18, 14, 0, 0, [1, 1, 1, 1, 0, 0]>, <248, 6, 24, 18, 14, 0, 0, [1, 1, 1, 1, 0, 0]>, <249, 8, 26, 18, 14, 0, 0, [1, 1, 1, 1, 0, 0]>, <250, 9, 27, 18, 14, 0, 0, [1, 1, 1, 1, 0, 0]>, <251, 10, 28, 18, 14, 0, 0, [1, 1, 1, 1, 0, 0]>, <252, 11, 29, 18, 14, 0, 0, [1, 1, 1, 1, 0, 0]>, <253, 12, 30, 18, 14, 0, 0, [1, 1, 1, 1, 0, 0]>, <254, 13, 31, 18, 14, 0, 0, [1, 1, 1, 1, 0, 0]>, <255, 14, 32, 18, 14, 0, 0, [1, 1, 1, 1, 0, 0]>, <256, 15, 33, 18, 14, 0, 0, [1, 1, 1, 1, 0, 0]>, <257, 16, 34, 18, 14, 0, 0, [1, 1, 1, 1, 0, 0]>, <258, 17, 35, 18, 14, 0, 0, [1, 1, 1, 1, 0, 0]>};
